345 5
10 10 10 10 10 

0 0 0 0 0 0 5 2 14 26 38 50 
0 0 0 0 0 0 3 3 4 5 
3 0 0 0 0 3 5 10 9 8 7 6 
10 0 0 0 0 7 4 10 9 7 6 
6 0 0 0 0 10 5 9 8 7 6 323 
9 0 0 0 0 10 2 12 11 
2 0 0 0 0 7 2 12 11 
4 0 0 0 0 10 2 12 11 
9 0 0 0 0 9 1 12 
10 0 0 0 0 6 1 11 
7 0 0 0 0 8 1 13 
8 0 0 0 0 5 1 13 
0 0 0 0 0 0 1 62 
0 0 0 0 0 0 5 15 16 17 18 19 
3 0 0 7 0 0 4 24 22 21 20 
2 0 0 5 0 0 3 22 21 20 
9 0 0 7 0 0 2 24 20 
9 0 0 10 0 0 1 21 
10 0 0 8 0 0 1 20 
8 0 0 8 0 0 1 23 
8 0 0 7 0 0 1 23 
2 0 0 9 0 0 1 23 
6 0 0 10 0 0 2 25 273 
5 0 0 4 0 0 1 25 
0 0 0 0 0 0 1 62 
0 0 0 0 0 0 5 27 28 30 31 36 
3 4 0 0 0 0 4 35 34 32 29 
7 7 0 0 0 0 2 32 29 
3 4 0 0 0 0 1 33 
1 10 0 0 0 0 1 34 
10 5 0 0 0 0 2 32 203 
8 10 0 0 0 0 1 37 
10 6 0 0 0 0 1 37 
10 10 0 0 0 0 1 37 
4 9 0 0 0 0 1 37 
10 10 0 0 0 0 1 37 
0 0 0 0 0 0 1 62 
0 0 0 0 0 0 6 39 40 41 42 48 114 
5 0 0 3 0 0 3 47 45 44 
9 0 0 8 0 0 2 47 43 
9 0 0 8 0 0 2 47 46 
7 0 0 8 0 0 2 47 46 
7 0 0 10 0 0 1 46 
2 0 0 10 0 0 1 46 
4 0 0 8 0 0 1 46 
10 0 0 7 0 0 1 49 
9 0 0 6 0 0 1 49 
5 0 0 7 0 0 1 49 
0 0 0 0 0 0 1 62 
0 0 0 0 0 0 3 51 52 134 
7 0 0 0 4 0 2 60 54 
7 0 0 0 10 0 2 59 53 
3 0 0 0 6 0 5 60 58 57 56 55 
10 0 0 0 5 0 5 59 58 57 56 55 
7 0 0 0 10 0 1 61 
10 0 0 0 6 0 1 61 
2 0 0 0 8 0 1 61 
7 0 0 0 9 0 1 61 
6 0 0 0 7 0 1 61 
10 0 0 0 10 0 1 61 
0 0 0 0 0 0 1 62 
0 0 0 0 0 0 5 63 75 87 99 111 
0 0 0 0 0 0 3 64 66 67 
1 0 0 8 0 0 3 73 68 65 
6 0 0 7 0 0 3 71 70 69 
7 0 0 4 0 0 3 72 71 69 
8 0 0 10 0 0 2 70 69 
2 0 0 8 0 0 1 69 
1 0 0 4 0 0 2 74 298 
2 0 0 7 0 0 1 74 
8 0 0 7 0 0 1 74 
7 0 0 10 0 0 1 74 
1 0 0 10 0 0 1 74 
0 0 0 0 0 0 1 123 
0 0 0 0 0 0 3 76 77 85 
5 4 0 0 0 0 3 80 79 78 
7 3 0 0 0 0 4 82 80 78 306 
9 8 0 0 0 0 3 84 83 81 
8 6 0 0 0 0 2 82 81 
8 10 0 0 0 0 1 81 
1 5 0 0 0 0 1 86 
6 10 0 0 0 0 1 86 
5 10 0 0 0 0 1 86 
1 10 0 0 0 0 1 86 
8 9 0 0 0 0 1 86 
0 0 0 0 0 0 1 123 
0 0 0 0 0 0 5 88 89 90 91 92 
4 0 0 0 4 0 2 94 93 
3 0 0 0 5 0 2 94 93 
2 0 0 0 4 0 2 94 93 
7 0 0 0 10 0 2 94 93 
2 0 0 0 10 0 2 94 93 
9 0 0 0 8 0 2 97 95 
6 0 0 0 9 0 3 96 95 334 
4 0 0 0 9 0 1 98 
6 0 0 0 9 0 1 98 
9 0 0 0 7 0 1 98 
0 0 0 0 0 0 1 123 
0 0 0 0 0 0 4 100 101 102 105 
5 0 0 0 0 5 4 109 104 103 152 
10 0 0 0 0 6 3 109 108 103 
3 0 0 0 0 10 2 104 103 
6 0 0 0 0 7 2 107 106 
6 0 0 0 0 10 2 108 107 
9 0 0 0 0 4 2 109 106 
8 0 0 0 0 7 1 110 
8 0 0 0 0 8 1 110 
5 0 0 0 0 8 1 110 
7 0 0 0 0 10 1 110 
0 0 0 0 0 0 1 123 
0 0 0 0 0 0 3 112 113 115 
4 3 0 0 0 0 4 121 119 118 116 
8 9 0 0 0 0 3 120 117 114 
10 10 0 0 0 0 2 119 118 
7 7 0 0 0 0 1 116 
1 10 0 0 0 0 2 117 286 
9 6 0 0 0 0 1 122 
10 8 0 0 0 0 1 122 
10 10 0 0 0 0 1 122 
6 8 0 0 0 0 1 122 
3 4 0 0 0 0 1 122 
0 0 0 0 0 0 1 123 
0 0 0 0 0 0 5 124 136 148 160 172 
0 0 0 0 0 0 4 125 126 128 134 
8 0 0 3 0 0 2 133 127 
10 0 0 7 0 0 3 131 130 129 
8 0 0 8 0 0 2 132 129 
7 0 0 10 0 0 2 131 130 
8 0 0 8 0 0 1 135 
7 0 0 9 0 0 2 135 326 
2 0 0 4 0 0 1 135 
10 0 0 10 0 0 1 135 
4 0 0 6 0 0 1 135 
10 0 0 10 0 0 1 135 
0 0 0 0 0 0 1 184 
0 0 0 0 0 0 3 137 139 141 
2 0 0 6 0 0 3 146 140 138 
5 0 0 4 0 0 3 145 144 143 
7 0 0 4 0 0 2 144 142 
3 0 0 6 0 0 3 145 143 339 
4 0 0 10 0 0 2 144 143 
7 0 0 7 0 0 1 143 
2 0 0 9 0 0 1 147 
8 0 0 9 0 0 1 147 
2 0 0 10 0 0 1 147 
5 0 0 10 0 0 1 147 
0 0 0 0 0 0 1 184 
0 0 0 0 0 0 5 149 150 152 153 158 
3 2 0 0 0 0 4 156 155 154 151 
6 5 0 0 0 0 2 156 154 
2 10 0 0 0 0 1 157 
8 8 0 0 0 0 1 155 
5 4 0 0 0 0 1 154 
9 8 0 0 0 0 1 159 
3 9 0 0 0 0 1 159 
10 10 0 0 0 0 1 159 
2 9 0 0 0 0 1 159 
7 10 0 0 0 0 1 159 
0 0 0 0 0 0 1 184 
0 0 0 0 0 0 4 161 162 164 165 
9 3 0 0 0 0 3 170 169 163 
10 7 0 0 0 0 4 170 168 167 166 
2 10 0 0 0 0 3 168 167 166 
6 9 0 0 0 0 3 169 167 166 
8 10 0 0 0 0 1 166 
10 10 0 0 0 0 1 171 
9 3 0 0 0 0 1 171 
1 10 0 0 0 0 1 171 
9 5 0 0 0 0 1 171 
10 8 0 0 0 0 1 171 
0 0 0 0 0 0 1 184 
0 0 0 0 0 0 5 173 174 175 177 178 
3 0 4 0 0 0 4 182 181 180 179 
2 0 7 0 0 0 2 181 179 
10 0 6 0 0 0 1 176 
6 0 10 0 0 0 1 179 
1 0 10 0 0 0 1 180 
3 0 10 0 0 0 1 180 
4 0 9 0 0 0 1 183 
3 0 10 0 0 0 1 183 
10 0 5 0 0 0 1 183 
4 0 4 0 0 0 1 183 
0 0 0 0 0 0 1 184 
0 0 0 0 0 0 5 185 207 229 251 263 
0 0 0 0 0 0 5 186 187 189 190 192 
4 0 0 2 0 3 2 196 188 
9 0 0 7 0 7 3 197 194 191 
10 0 0 4 0 8 4 205 198 195 193 
7 0 0 7 0 9 4 205 197 196 195 
8 0 0 9 0 8 2 196 193 
5 0 0 7 0 5 4 205 204 203 195 
10 0 0 7 0 10 4 205 202 198 197 
4 0 0 7 0 8 4 203 202 200 197 
8 0 0 10 0 10 3 203 198 195 
7 0 0 10 0 6 4 202 201 200 199 
5 0 0 9 0 9 2 203 198 
2 0 0 7 0 6 3 204 201 199 
1 0 0 4 0 7 2 200 199 
2 0 0 7 0 9 1 206 
4 0 0 10 0 10 1 206 
9 0 0 10 0 4 1 206 
5 0 0 8 0 8 1 206 
1 0 0 10 0 5 1 206 
8 0 0 8 0 8 1 206 
4 0 0 7 0 10 1 206 
0 0 0 0 0 0 1 345 
0 0 0 0 0 0 11 208 209 210 212 216 217 218 224 225 226 227 
1 0 0 2 0 2 3 223 220 214 
3 0 0 5 0 3 2 221 213 
1 0 0 7 0 9 1 211 
1 0 0 9 0 5 3 222 220 215 
6 0 0 10 0 10 2 220 215 
5 0 0 9 0 10 1 214 
1 0 0 9 0 8 1 215 
7 0 0 8 0 8 1 219 
3 0 0 10 0 9 1 221 
3 0 0 7 0 7 1 221 
6 0 0 6 0 7 1 219 
6 0 0 8 0 7 1 228 
3 0 0 9 0 10 1 228 
1 0 0 9 0 8 1 228 
7 0 0 4 0 6 1 228 
2 0 0 7 0 10 1 228 
3 0 0 9 0 10 1 228 
9 0 0 8 0 8 1 228 
5 0 0 9 0 6 1 228 
2 0 0 5 0 7 1 228 
0 0 0 0 0 0 1 345 
0 0 0 0 0 0 9 230 231 232 233 234 237 238 240 243 
8 7 0 0 3 0 4 249 247 245 235 
9 7 0 0 8 0 4 248 247 242 239 
2 9 0 0 10 0 4 248 247 239 236 
6 9 0 0 9 0 2 247 236 
1 2 0 0 8 0 4 247 246 245 241 
10 5 0 0 6 0 2 248 239 
10 6 0 0 10 0 3 246 245 241 
5 9 0 0 9 0 3 248 246 242 
9 10 0 0 7 0 2 242 241 
8 10 0 0 9 0 2 246 241 
10 3 0 0 10 0 1 241 
2 10 0 0 7 0 1 244 
5 6 0 0 6 0 1 245 
6 5 0 0 10 0 1 244 
4 8 0 0 10 0 1 250 
2 10 0 0 4 0 1 250 
6 10 0 0 4 0 1 250 
1 9 0 0 4 0 1 250 
6 7 0 0 10 0 1 250 
5 8 0 0 6 0 1 250 
0 0 0 0 0 0 1 345 
0 0 0 0 0 0 5 252 253 254 255 261 
7 0 0 4 0 0 3 259 258 256 
7 0 0 9 0 0 3 260 259 257 
4 0 0 7 0 0 3 259 258 257 
7 0 0 6 0 0 2 258 257 
6 0 0 6 0 0 1 257 
10 0 0 9 0 0 1 262 
4 0 0 8 0 0 1 262 
3 0 0 10 0 0 1 262 
3 0 0 10 0 0 1 262 
9 0 0 6 0 0 1 262 
0 0 0 0 0 0 5 285 297 309 321 333 
0 0 0 0 0 0 9 264 265 266 268 269 272 273 274 283 
5 0 0 3 0 3 5 282 281 280 279 271 
4 0 0 10 0 6 3 280 278 267 
2 0 0 4 0 3 2 278 270 
3 0 0 8 0 8 4 281 279 277 275 
7 0 0 10 0 9 4 280 279 277 275 
5 0 0 8 0 10 2 278 271 
3 0 0 10 0 6 1 271 
8 0 0 6 0 4 2 277 275 
5 0 0 8 0 8 2 277 275 
4 0 0 4 0 9 2 277 275 
3 0 0 10 0 7 2 282 278 
8 0 0 8 0 10 1 276 
10 0 0 10 0 6 1 284 
2 0 0 9 0 10 1 284 
7 0 0 5 0 9 1 284 
8 0 0 10 0 10 1 284 
7 0 0 6 0 6 1 284 
6 0 0 8 0 10 1 284 
7 0 0 5 0 8 1 284 
6 0 0 8 0 8 1 284 
0 0 0 0 0 0 1 345 
0 0 0 0 0 0 5 286 287 289 294 295 
1 0 2 0 0 0 2 291 288 
6 0 7 0 0 0 2 293 290 
3 0 5 0 0 0 2 293 292 
5 0 7 0 0 0 2 292 291 
2 0 10 0 0 0 1 291 
5 0 10 0 0 0 1 296 
8 0 6 0 0 0 1 296 
9 0 10 0 0 0 1 296 
8 0 10 0 0 0 1 296 
6 0 8 0 0 0 1 296 
0 0 0 0 0 0 1 345 
0 0 0 0 0 0 5 298 299 305 306 307 
2 0 0 0 0 3 4 304 303 302 300 
7 0 0 0 0 10 2 302 301 
10 0 0 0 0 10 1 301 
8 0 0 0 0 4 1 308 
3 0 0 0 0 7 1 308 
2 0 0 0 0 10 1 308 
4 0 0 0 0 6 1 308 
4 0 0 0 0 5 1 308 
6 0 0 0 0 10 1 308 
4 0 0 0 0 10 1 308 
0 0 0 0 0 0 1 345 
0 0 0 0 0 0 5 310 311 312 313 315 
6 0 0 4 0 0 3 317 316 314 
1 0 0 9 0 0 2 319 317 
4 0 0 8 0 0 2 319 316 
3 0 0 10 0 0 2 319 316 
1 0 0 8 0 0 2 319 318 
4 0 0 8 0 0 2 319 318 
6 0 0 9 0 0 1 318 
10 0 0 4 0 0 1 318 
10 0 0 5 0 0 1 320 
8 0 0 10 0 0 1 320 
0 0 0 0 0 0 1 345 
0 0 0 0 0 0 6 322 327 328 329 330 331 
2 0 0 0 0 2 2 326 323 
7 0 0 0 0 8 2 325 324 
3 0 0 0 0 5 1 332 
8 0 0 0 0 5 1 332 
9 0 0 0 0 7 1 332 
3 0 0 0 0 10 1 332 
4 0 0 0 0 10 1 332 
7 0 0 0 0 10 1 332 
9 0 0 0 0 9 1 332 
9 0 0 0 0 9 1 332 
0 0 0 0 0 0 1 345 
0 0 0 0 0 0 5 334 336 341 342 343 
3 0 0 1 0 0 3 340 337 335 
3 0 0 10 0 0 2 339 338 
4 0 0 6 0 0 1 337 
4 0 0 7 0 0 1 344 
1 0 0 9 0 0 1 344 
5 0 0 9 0 0 1 344 
3 0 0 9 0 0 1 344 
2 0 0 9 0 0 1 344 
6 0 0 8 0 0 1 344 
7 0 0 7 0 0 1 344 
0 0 0 0 0 0 1 345 
0 0 0 0 0 0 0 
